0 1816 
1 1804 
2 1796 
3 1792 
4 1784 
5 1766 
6 1762 
7 1758 
8 1754 
9 1738 
10 1722 
11 1714 
12 1706 
13 1698 
14 1696 
15 1686 
16 1684 
17 1676 
18 1672 
19 1662 
20 1656 
21 1654 
22 1638 
23 1622 
24 1618 
25 1618 
26 1608 
27 1608 
28 1604 
29 1602 
30 1598 
31 1596 
32 1586 
33 1578 
34 1576 
35 1566 
36 1556 
37 1548 
38 1546 
39 1542 
40 1530 
41 1522 
42 1514 
43 1512 
44 1504 
45 1502 
46 1492 
47 1490 
48 1486 
49 1478 
50 1466 
51 1460 
52 1444 
53 1430 
54 1422 
55 1402 
56 1398 
57 1392 
58 1380 
59 1376 
60 1374 
61 1346 
62 1346 
63 1342 
64 1334 
65 1332 
66 1312 
67 1296 
68 1292 
69 1292 
70 1292 
71 1292 
72 1292 
73 1292 
74 1270 
75 1266 
76 1248 
77 1240 
78 1240 

